
Gurobi 10.0.1 (win64) logging started Wed Jan 15 21:22:09 2025

Set parameter LogFile to value "result/origin100/grblog_constrainedNL_strongFalse_logSum100_pnr_origin100_I300_J30_p15_inst6_machineDESKTOP-ASQ3AP9.txt"

Gurobi 10.0.1 (win64) logging started Wed Jan 15 21:22:09 2025

Set parameter LogFile to value "result/origin100/grblog_constrainedNL_strongFalse_logSum100_pnr_origin100_I300_J30_p15_inst6_machineDESKTOP-ASQ3AP9.txt"
Set parameter LazyConstraints to value 1
Gurobi Optimizer version 10.0.1 build v10.0.1rc0 (win64)

CPU model: Intel(R) Core(TM) i7-7700 CPU @ 3.60GHz, instruction set [SSE2|AVX|AVX2]
Thread count: 4 physical cores, 8 logical processors, using up to 8 threads

Optimize a model with 56645 rows, 9360 columns and 165066 nonzeros
Model fingerprint: 0x530519dc
Variable types: 9330 continuous, 30 integer (30 binary)
Coefficient statistics:
  Matrix range     [5e-09, 2e+08]
  Objective range  [1e+00, 1e+00]
  Bounds range     [1e+00, 1e+00]
  RHS range        [1e+00, 8e+02]
Warning: Model contains large matrix coefficient range
         Consider reformulating model or setting NumericFocus parameter
         to avoid numerical issues.

User MIP start produced solution with objective 1928.17 (0.06s)
Loaded user MIP start with objective 1928.17

Presolve removed 11768 rows and 5870 columns
Presolve time: 0.25s
Presolved: 44877 rows, 3490 columns, 136762 nonzeros
Variable types: 3460 continuous, 30 integer (30 binary)
Root relaxation presolved: 44877 rows, 3490 columns, 136762 nonzeros


Root relaxation: objective 5.371000e+03, 714 iterations, 0.23 seconds (0.73 work units)

    Nodes    |    Current Node    |     Objective Bounds      |     Work
 Expl Unexpl |  Obj  Depth IntInf | Incumbent    BestBd   Gap | It/Node Time

     0     0 5371.00000    0   25 1928.17361 5371.00000   179%     -    5s
     0     0 3815.20498    0   24 1928.17361 3815.20498  97.9%     -   13s
     0     0 3815.20498    0   24 1928.17361 3815.20498  97.9%     -   15s
     0     0 3575.67998    0   24 1928.17361 3575.67998  85.4%     -   19s
     0     0 3509.72220    0   25 1928.17361 3509.72220  82.0%     -   20s
     0     0 3508.72423    0   25 1928.17361 3508.72423  82.0%     -   21s
     0     0 3508.60405    0   25 1928.17361 3508.60405  82.0%     -   21s
     0     0 3257.01358    0   23 1928.17361 3257.01358  68.9%     -   26s
     0     0 3154.70803    0   24 1928.17361 3154.70803  63.6%     -   29s
     0     0 3151.14267    0   24 1928.17361 3151.14267  63.4%     -   29s
     0     0 3151.13249    0   24 1928.17361 3151.13249  63.4%     -   30s
     0     0 2958.52861    0   23 1928.17361 2958.52861  53.4%     -   34s
     0     0 2946.05813    0   24 1928.17361 2946.05813  52.8%     -   36s
     0     0 2945.27007    0   24 1928.17361 2945.27007  52.7%     -   37s
     0     0 2945.15065    0   24 1928.17361 2945.15065  52.7%     -   37s
     0     0 2892.50916    0   24 1928.17361 2892.50916  50.0%     -   40s
     0     0 2824.10775    0   25 1928.17361 2824.10775  46.5%     -   44s
     0     0 2810.36694    0   26 1928.17361 2810.36694  45.8%     -   45s
     0     0 2804.79113    0   26 1928.17361 2804.79113  45.5%     -   45s
     0     0 2804.21977    0   26 1928.17361 2804.21977  45.4%     -   46s
     0     0 2804.15770    0   26 1928.17361 2804.15770  45.4%     -   46s
     0     0 2685.88358    0   27 1928.17361 2685.88358  39.3%     -   49s
     0     0 2669.13554    0   27 1928.17361 2669.13554  38.4%     -   50s
     0     0 2666.47615    0   28 1928.17361 2666.47615  38.3%     -   51s
     0     0 2666.12768    0   28 1928.17361 2666.12768  38.3%     -   51s
     0     0 2624.32339    0   29 1928.17361 2624.32339  36.1%     -   53s
     0     0 2619.52437    0   29 1928.17361 2619.52437  35.9%     -   55s
     0     0 2612.16440    0   29 1928.17361 2612.16440  35.5%     -   55s
     0     0 2611.21315    0   29 1928.17361 2611.21315  35.4%     -   56s
     0     0 2611.04278    0   29 1928.17361 2611.04278  35.4%     -   56s
     0     0 2587.10211    0   28 1928.17361 2587.10211  34.2%     -   58s
     0     0 2583.59668    0   28 1928.17361 2583.59668  34.0%     -   60s
     0     0 2582.89180    0   29 1928.17361 2582.89180  34.0%     -   61s
     0     0 2575.08517    0   29 1928.17361 2575.08517  33.6%     -   62s
     0     0 2573.10778    0   28 1928.17361 2573.10778  33.4%     -   63s
     0     0 2572.79565    0   29 1928.17361 2572.79565  33.4%     -   63s
     0     0 2563.95588    0   30 1928.17361 2563.95588  33.0%     -   65s
     0     0 2560.78294    0   29 1928.17361 2560.78294  32.8%     -   66s
     0     0 2560.32475    0   29 1928.17361 2560.32475  32.8%     -   67s
     0     0 2552.94867    0   29 1928.17361 2552.94867  32.4%     -   68s
     0     0 2551.22073    0   30 1928.17361 2551.22073  32.3%     -   69s
     0     0 2549.99645    0   30 1928.17361 2549.99645  32.2%     -   69s
     0     0 2549.25638    0   30 1928.17361 2549.25638  32.2%     -   69s
     0     0 2548.35910    0   30 1928.17361 2548.35910  32.2%     -   70s
     0     0 2548.13682    0   30 1928.17361 2548.13682  32.2%     -   71s
     0     0 2544.62628    0   30 1928.17361 2544.62628  32.0%     -   73s
     0     0 2447.41575    0   29 1928.17361 2447.41575  26.9%     -   87s
     0     2 2447.41575    0   29 1928.17361 2447.41575  26.9%     -   89s
     1     4 2430.00064    1   28 1928.17361 2447.41575  26.9%  1187   94s
     3     8 2317.51736    2   27 1928.17361 2429.92265  26.0%  2856   99s
     7    12 2282.85410    3   26 1928.17361 2369.76841  22.9%  2079  102s
    11    16 2068.01662    3   27 1928.17361 2369.76522  22.9%  2163  107s
    23    28 2224.21433    5   25 1928.17361 2325.03580  20.6%  1639  111s
    32    38 2099.30584    8   22 1928.17361 2325.03580  20.6%  1473  115s
    49    57 2219.15333    9   21 1928.17361 2325.03580  20.6%  1234  120s
    66    73 2095.62189   11   19 1928.17361 2325.03580  20.6%  1111  125s
    86    89 1986.69903   13   16 1928.17361 2325.03580  20.6%  1054  131s
   122   110 2039.41702    6   20 1928.17361 2303.82105  19.5%   893  137s
   140   113 2061.77053    7   21 1928.17361 2303.82105  19.5%   844  140s
   161   119 1981.42552    7   18 1928.17361 2303.82105  19.5%   852  146s
   180   121 1964.62004   10   15 1928.17361 2303.82105  19.5%   849  150s
   205   120 2036.54242    8   21 1928.17361 2271.53793  17.8%   838  157s
   215   121     cutoff    9      1928.17361 2271.53793  17.8%   851  160s
   235   119     cutoff   10      1928.17361 2271.53793  17.8%   862  167s
   245   113     cutoff   10      1928.17361 2240.04143  16.2%   861  171s
   255   112 1988.02742   11   16 1928.17361 2240.04143  16.2%   885  175s
   274   107 2066.24239    7   20 1928.17361 2204.04939  14.3%   909  184s
   287   106 2103.56034    8   19 1928.17361 2202.85303  14.2%   912  189s
   304   106     cutoff    9      1928.17361 2193.89881  13.8%   902  194s
   314   103 2096.73105    7   21 1928.17361 2193.89881  13.8%   913  199s
   327   100     cutoff    8      1928.17361 2193.89881  13.8%   919  203s
   336   104     cutoff    8      1928.17361 2186.45201  13.4%   934  208s
   344   108     cutoff    7      1928.17361 2185.01462  13.3%   939  214s
   360   103 2042.02675   10   18 1928.17361 2185.01462  13.3%   930  220s
   380   102 2014.34432   10   15 1928.17361 2185.01462  13.3%   924  226s
   396   109     cutoff    8      1928.17361 2166.94911  12.4%   924  231s
   413   104 2084.49815    6   21 1928.17361 2166.94911  12.4%   916  238s
   428   105 1996.55913    7   20 1928.17361 2166.94911  12.4%   931  245s
   449   102     cutoff    9      1928.17361 2143.13462  11.1%   924  254s
   463   101 1960.71442   10   14 1928.17361 2143.13462  11.1%   940  261s
   476   100 1954.19061    8   15 1928.17361 2143.13462  11.1%   946  267s
   492    96     cutoff   11      1928.17361 2114.95513  9.69%   946  274s
   506    98 2004.84253    7   20 1928.17361 2114.95513  9.69%   959  283s
   526    97     cutoff    9      1928.17361 2112.32807  9.55%   954  292s
   558    97     cutoff    9      1928.17361 2112.17771  9.54%   937  300s
   585    98     cutoff    8      1928.17361 2110.86657  9.47%   923  309s
   609    94     cutoff   11      1928.17361 2099.30584  8.88%   924  321s
   651    92     cutoff    9      1928.17361 2095.51051  8.68%   901  332s
   691    89 1942.81069    9   16 1928.17361 2086.92393  8.23%   887  342s
   728    89 1967.16436   11   15 1928.17361 2071.53748  7.44%   873  354s
   776    79     cutoff   10      1928.17361 2066.87448  7.19%   852  365s
*  792    79              20    1928.1790369 2061.98548  6.94%   850  365s
   811    74     cutoff    6      1928.17904 2061.57341  6.92%   848  376s
   852    62 1945.00816   12   15 1928.17904 2033.40791  5.46%   835  387s
   895    55     cutoff    7      1928.17904 2011.23668  4.31%   823  399s
   960    50     cutoff   12      1928.17904 1986.45671  3.02%   803  412s
  1030    12     cutoff   12      1928.17904 1975.23094  2.44%   777  427s

Cutting planes:
  Implied bound: 131
  MIR: 332
  Flow cover: 416
  RLT: 373
  Relax-and-lift: 52
  Lazy constraints: 1510

Explored 1123 nodes (918505 simplex iterations) in 429.72 seconds (1496.01 work units)
Thread count was 8 (of 8 available processors)

Solution count 1: 1928.18 

Optimal solution found (tolerance 1.00e-04)
Best objective 1.928179036880e+03, best bound 1.928179036880e+03, gap 0.0000%

User-callback calls 14880, time in user-callback 0.49 sec
